clingo version 5.2.2
Reading from warehouseScenario.lp ...
Solving...
Answer: 1
occurs(object(robot,1),move(-1,0),1) occurs(object(robot,2),move(-1,0),1) occurs(object(robot,1),move(-1,0),3) occurs(object(robot,2),move(0,1),3) occurs(object(robot,1),move(-1,0),5) occurs(object(robot,2),move(0,-1),5) occurs(object(robot,2),move(1,0),7) occurs(object(robot,1),move(1,0),8) occurs(object(robot,2),move(1,0),8) occurs(object(robot,1),move(0,-1),9) occurs(object(robot,2),move(0,-1),10) occurs(object(robot,1),move(1,0),11) occurs(object(robot,1),move(0,-1),12) occurs(object(robot,2),move(1,0),12) occurs(object(robot,1),pdown,7) occurs(object(robot,2),pdown,6) occurs(object(robot,2),pkup,2) occurs(object(robot,1),pkup,4) occurs(object(robot,2),pkup,9) occurs(object(robot,1),pkup,10) occurs(object(robot,2),deliver(1,3,4),4) occurs(object(robot,1),deliver(1,1,1),6) occurs(object(robot,2),deliver(3,4,1),11) occurs(object(robot,1),deliver(2,2,1),13)
SATISFIABLE

Models       : 1+
Calls        : 1
Time         : 217.092s (Solving: 162.30s 1st Model: 162.29s Unsat: 0.00s)
CPU Time     : 376.448s
Threads      : 2        (Winner: 2)